qbf_easy_train/easy_2946_SAT.qdimacs
p cnf 32 91
a 20 22 0
e 1 2 3 4 5 6 7 8 9 10 11 12 13 14 15 16 17 18 19 21 23 24 25 26 27 28 29 30 31 32 0
3 -1 0
3 2 0
1 -2 -3 0
-5 -1 0
-5 -4 0
1 4 5 0
8 6 0
8 -7 0
-6 7 -8 0
-4 7 -9 0
4 -7 -9 0
-4 -7 9 0
4 7 9 0
10 -9 0
10 2 0
9 -2 -10 0
11 10 0
11 -9 0
-10 9 -11 0
8 11 -12 0
-8 -11 -12 0
8 -11 12 0
-8 11 12 0
14 1 0
14 13 0
-1 -13 -14 0
4 14 -15 0
-4 -14 -15 0
4 -14 15 0
-4 14 15 0
12 15 -16 0
-12 -15 -16 0
12 -15 16 0
-12 15 16 0
5 -16 -17 0
-5 16 -17 0
5 16 17 0
-5 -16 17 0
-2 4 -18 0
2 -4 -18 0
-2 -4 18 0
2 4 18 0
-19 18 0
-19 -7 0
-18 7 19 0
-22 7 0
-22 -21 0
-7 21 22 0
20 -22 -23 0
-20 22 -23 0
20 22 23 0
-20 -22 23 0
-24 19 0
-24 23 0
-19 -23 24 0
6 -2 -25 0
-6 2 -25 0
6 2 25 0
-6 -2 25 0
-26 25 0
-26 -18 0
-25 18 26 0
27 -26 0
27 26 0
24 -27 -28 0
-24 27 -28 0
24 27 28 0
-24 -27 28 0
29 17 0
29 28 0
-17 -28 -29 0
-2 -25 -30 0
2 25 -30 0
-2 25 30 0
2 -25 30 0
-29 -30 -31 0
29 30 -31 0
-29 30 31 0
29 -30 31 0
32 3 0
32 31 0
-3 -31 -32 0
-16 17 -31 -4 0
-4 -28 13 32 22 -7 0
9 -24 -30 -6 -14 -8 -4 0
19 -17 -4 0
-11 6 29 13 14 -1 -7 0
28 -12 0
8 19 -28 0
-25 -2 -28 23 -11 -5 29 0
32 0
