sat_easy_train/easy_2946_SAT.dimacs
p cnf 100 324
4 2 0
4 3 0
-2 -3 -4 0
1 4 -5 0
-1 -4 -5 0
1 -4 5 0
-1 4 5 0
-7 -5 0
-7 -6 0
5 6 7 0
-8 6 -9 0
8 -6 -9 0
-8 -6 9 0
8 6 9 0
-7 -9 -10 0
7 9 -10 0
-7 9 10 0
7 -9 10 0
-11 -5 0
-11 -6 0
5 6 11 0
13 11 0
13 12 0
-11 -12 -13 0
-10 -13 -14 0
10 13 -14 0
-10 13 14 0
10 -13 14 0
-15 16 -17 0
15 -16 -17 0
-15 -16 17 0
15 16 17 0
19 -18 0
19 -1 0
18 1 -19 0
20 -17 0
20 19 0
17 -19 -20 0
-20 -16 -21 0
20 16 -21 0
-20 16 21 0
20 -16 21 0
-22 21 0
-22 -11 0
-21 11 22 0
23 19 0
23 -4 0
-19 4 -23 0
23 -6 -24 0
-23 6 -24 0
23 6 24 0
-23 -6 24 0
20 -24 -25 0
-20 24 -25 0
20 24 25 0
-20 -24 25 0
-26 22 0
-26 -25 0
-22 25 26 0
-29 -28 0
-29 -15 0
28 15 29 0
30 27 0
30 29 0
-27 -29 -30 0
31 2 0
31 -27 0
-2 27 -31 0
-2 31 -32 0
2 -31 -32 0
-2 -31 32 0
2 31 32 0
30 32 -33 0
-30 -32 -33 0
30 -32 33 0
-30 32 33 0
26 -33 -34 0
-26 33 -34 0
26 33 34 0
-26 -33 34 0
35 -14 0
35 -34 0
14 34 -35 0
-36 9 0
-36 -19 0
-9 19 36 0
37 -12 0
37 24 0
12 -24 -37 0
-36 -37 -38 0
36 37 -38 0
-36 37 38 0
36 -37 38 0
-3 -27 -39 0
3 27 -39 0
-3 27 39 0
3 -27 39 0
-18 -39 -40 0
18 39 -40 0
-18 39 40 0
18 -39 40 0
42 40 0
42 -41 0
-40 41 -42 0
43 2 0
43 4 0
-2 -4 -43 0
-44 18 0
-44 -43 0
-18 43 44 0
46 45 0
46 -45 0
47 29 0
47 46 0
-29 -46 -47 0
-48 47 0
-48 1 0
-47 -1 48 0
-49 28 -50 0
49 -28 -50 0
-49 -28 50 0
49 28 50 0
51 50 0
51 -20 0
-50 20 -51 0
-52 -51 0
-52 -3 0
51 3 52 0
-52 4 -53 0
52 -4 -53 0
-52 -4 53 0
52 4 53 0
48 53 -54 0
-48 -53 -54 0
48 -53 54 0
-48 53 54 0
44 54 -55 0
-44 -54 -55 0
44 -54 55 0
-44 54 55 0
42 -55 -56 0
-42 55 -56 0
42 55 56 0
-42 -55 56 0
57 43 0
57 -3 0
-43 3 -57 0
58 -57 0
58 40 0
57 -40 -58 0
58 11 -59 0
-58 -11 -59 0
58 -11 59 0
-58 11 59 0
-60 19 0
-60 21 0
-19 -21 60 0
-61 -40 0
-61 4 0
40 -4 61 0
62 -60 0
62 -61 0
60 61 -62 0
-63 -6 0
-63 9 0
6 -9 63 0
-63 -5 -64 0
63 5 -64 0
-63 5 64 0
63 -5 64 0
62 -64 -65 0
-62 64 -65 0
62 64 65 0
-62 -64 65 0
66 -59 0
66 65 0
59 -65 -66 0
67 -32 0
67 -39 0
32 39 -67 0
68 67 0
68 -23 0
-67 23 -68 0
-19 -47 -69 0
19 47 -69 0
-19 47 69 0
19 -47 69 0
-70 -3 0
-70 1 0
3 -1 70 0
69 70 -71 0
-69 -70 -71 0
69 -70 71 0
-69 70 71 0
68 -71 -72 0
-68 71 -72 0
68 71 72 0
-68 -71 72 0
73 -49 0
73 -8 0
49 8 -73 0
74 -1 0
74 73 0
1 -73 -74 0
75 74 0
75 -16 0
-74 16 -75 0
-76 12 -77 0
76 -12 -77 0
-76 -12 77 0
76 12 77 0
-78 -69 0
-78 -12 0
69 12 78 0
-79 -77 0
-79 78 0
77 -78 79 0
-80 40 0
-80 8 0
-40 -8 80 0
81 -46 0
81 80 0
46 -80 -81 0
79 -81 -82 0
-79 81 -82 0
79 81 82 0
-79 -81 82 0
-83 75 0
-83 82 0
-75 -82 83 0
-84 -39 0
-84 5 0
39 -5 84 0
27 1 -85 0
-27 -1 -85 0
27 -1 85 0
-27 1 85 0
-86 -6 0
-86 5 0
6 -5 86 0
-87 29 0
-87 80 0
-29 -80 87 0
88 -86 0
88 87 0
86 -87 -88 0
89 85 0
89 88 0
-85 -88 -89 0
-90 84 0
-90 -89 0
-84 89 90 0
-91 83 0
-91 -90 0
-83 90 91 0
92 72 0
92 91 0
-72 -91 -92 0
66 -92 -93 0
-66 92 -93 0
66 92 93 0
-66 -92 93 0
95 94 0
95 -12 0
-94 12 -95 0
-96 50 0
-96 95 0
-50 -95 96 0
-97 93 0
-97 -96 0
-93 96 97 0
-98 -56 0
-98 97 0
56 -97 98 0
-99 -38 0
-99 -98 0
38 98 99 0
35 99 -100 0
-35 -99 -100 0
35 -99 100 0
-35 99 100 0
-38 5 -45 0
96 97 48 -67 0
44 -48 69 0
-60 -77 0
-99 -87 -69 0
-17 -18 -72 0
-40 98 -30 0
-18 -87 91 -15 43 -70 0
-70 35 66 0
89 88 45 73 60 77 0
51 39 -37 49 22 0
97 67 0
45 7 -87 0
72 -77 0
-30 89 -24 99 60 0
18 30 -90 98 -45 60 0
-80 -79 0
58 40 79 -29 44 0
-13 12 0
-16 69 3 96 58 0
-24 77 -64 -51 63 66 0
42 78 -29 -79 -10 0
10 69 -73 78 0
-48 -70 -66 -58 -8 0
-94 -67 1 0
-6 -8 39 30 -96 79 0
21 -19 97 32 -64 0
10 -45 95 -91 30 0
-53 31 39 0
-14 68 -35 -77 0
-60 40 84 0
90 44 -41 22 59 0
57 -99 0
-84 41 45 -8 14 0
-85 -89 -98 0
-6 41 83 -19 0
63 -7 0
84 -46 0
5 -23 -25 18 0
1 -29 -68 -74 -51 75 0
51 -86 0
53 -44 -97 -20 49 0
100 0
